instances/knapsack/discrete_knapsack_uncertainty/knapsack_70_6.lp
\ Model knapsack_70_6
\ LP format - for model browsing. Use MPS format to capture full model detail.
\ Signature: 0x9699bb600e1f4c54
Minimize
  - 76 x[0] - 88 x[1] - 62 x[2] - 10 x[3] - 47 x[4] - 63 x[5] - 43 x[6]
   - 77 x[7] - 4 x[8] - 20 x[9] - 25 x[10] - 77 x[11] - 69 x[12] - 72 x[13]
   - 41 x[14] - 22 x[15] - 100 x[16] - 32 x[17] - 52 x[18] - 39 x[19]
   - 51 x[20] - 45 x[21] - 30 x[22] - 22 x[23] - 15 x[24] - 8 x[25]
   - 6 x[26] - 25 x[27] - 28 x[28] - 86 x[29] - 23 x[30] - 58 x[31]
   - 82 x[32] - 41 x[33] - 9 x[34] - 95 x[35] - 23 x[36] - 77 x[37]
   - 84 x[38] - 53 x[39] - 78 x[40] - 23 x[41] - 27 x[42] - 45 x[43]
   - 28 x[44] - 85 x[45] - 94 x[46] - 6 x[47] - 22 x[48] - 43 x[49]
   - 5 x[50] - 76 x[51] - 61 x[52] - 71 x[53] - 10 x[54] - 56 x[55]
   - 4 x[56] - 6 x[57] - 26 x[58] - 53 x[59] - 10 x[60] - 84 x[61]
   - 39 x[62] - 91 x[63] - 20 x[64] - 23 x[65] - 55 x[66] - 51 x[67]
   - 50 x[68] - 51 x[69]
Subject To
 primal_upper: 43 x[0] + 48 x[1] + 30 x[2] + 39 x[3] + 92 x[4] + 5 x[5]
   + 17 x[6] + 7 x[7] + 33 x[8] + 10 x[9] + 83 x[10] + 71 x[11] + 16 x[12]
   + 100 x[13] + 64 x[14] + 36 x[15] + 77 x[16] + 24 x[17] + 77 x[18]
   + 26 x[19] + 5 x[20] + 95 x[21] + 96 x[22] + 46 x[23] + 36 x[24]
   + 16 x[25] + 22 x[26] + 95 x[27] + 81 x[28] + 71 x[29] + 25 x[30]
   + 35 x[31] + 95 x[32] + 81 x[33] + 92 x[34] + 85 x[35] + 60 x[36]
   + 20 x[37] + 28 x[38] + 86 x[39] + 11 x[40] + 25 x[41] + 82 x[42]
   + 69 x[43] + 87 x[44] + 22 x[45] + 89 x[46] + 21 x[47] + 43 x[48]
   + 96 x[49] + 54 x[50] + 40 x[51] + 49 x[52] + 32 x[53] + 36 x[54]
   + 71 x[55] + 53 x[56] + 58 x[57] + 92 x[58] + 18 x[59] + 60 x[60]
   + 50 x[61] + 67 x[62] + 26 x[63] + 19 x[64] + 32 x[65] + 60 x[66]
   + 74 x[67] + 88 x[68] + 65 x[69] + 4.3 r[0] + 4.8 r[1] + 3 r[2]
   + 3.9 r[3] + 9.2 r[4] + 0.5 r[5] + 1.7 r[6] + 0.7 r[7] + 3.3 r[8] + r[9]
   + 8.3 r[10] + 7.1 r[11] + 1.6 r[12] + 10 r[13] + 6.4 r[14] + 3.6 r[15]
   + 7.7 r[16] + 2.4 r[17] + 7.7 r[18] + 2.6 r[19] + 0.5 r[20] + 9.5 r[21]
   + 9.6 r[22] + 4.6 r[23] + 3.6 r[24] + 1.6 r[25] + 2.2 r[26] + 9.5 r[27]
   + 8.1 r[28] + 7.1 r[29] + 2.5 r[30] + 3.5 r[31] + 9.5 r[32] + 8.1 r[33]
   + 9.2 r[34] + 8.5 r[35] + 6 r[36] + 2 r[37] + 2.8 r[38] + 8.6 r[39]
   + 1.1 r[40] + 2.5 r[41] + 8.2 r[42] + 6.9 r[43] + 8.7 r[44] + 2.2 r[45]
   + 8.9 r[46] + 2.1 r[47] + 4.3 r[48] + 9.6 r[49] + 5.4 r[50] + 4 r[51]
   + 4.9 r[52] + 3.2 r[53] + 3.6 r[54] + 7.1 r[55] + 5.3 r[56] + 5.8 r[57]
   + 9.2 r[58] + 1.8 r[59] + 6 r[60] + 5 r[61] + 6.7 r[62] + 2.6 r[63]
   + 1.9 r[64] + 3.2 r[65] + 6 r[66] + 7.4 r[67] + 8.8 r[68] + 6.5 r[69]
   <= 348
 primal_lower: 0.1205361783409927 x[0] + 3.136059872372139 x[1]
   + 1.177431034682197 x[2] + 1.391604527476424 x[3]
   + 1.416937331507247 x[4] + 3.432007802732483 x[5]
   + 3.445755642538602 x[6] + 3.199794759474641 x[7]
   + 0.9835629592665329 x[8] + 2.602969375935275 x[9]
   + 0.7145774397388847 x[10] + 0.151660048151734 x[11]
   + 1.576388405945817 x[12] + 2.274779590701309 x[13]
   + 4.104980788420889 x[14] + 1.306293425249438 x[15]
   + 4.486129833998405 x[16] + 4.286866412951868 x[17]
   + 3.266600926167305 x[18] + 1.514234059640496 x[19]
   + 2.051073092115544 x[20] + 2.96128174989116 x[21]
   + 1.174573121374757 x[22] + 3.875261863534901 x[23]
   + 1.955164679291074 x[24] + 1.791813678380128 x[25]
   + 3.564837835534294 x[26] + 0.1360608599534388 x[27]
   + 3.074124133825857 x[28] + 0.2192009030540887 x[29]
   + 2.995167216311986 x[30] + 1.052151018378025 x[31]
   + 3.762598602592665 x[32] + 2.572251794907489 x[33]
   + 4.390057309745928 x[34] + 3.322880154667885 x[35]
   + 4.001079183248206 x[36] + 3.639976957142787 x[37]
   + 1.759436045975974 x[38] + 2.120540303678132 x[39]
   + 1.133976488344267 x[40] + 1.665839043114314 x[41]
   + 4.310011989791269 x[42] + 1.580371070713732 x[43]
   + 4.271573927195023 x[44] + 0.5961389146692965 x[45]
   + 2.716546781909409 x[46] + 3.51157557541575 x[47]
   + 2.508734201385324 x[48] + 1.605008828936878 x[49]
   + 1.880445997521846 x[50] + 3.852699322914568 x[51]
   + 0.5282928295733301 x[52] + 1.885331300675156 x[53]
   + 0.9735308062301223 x[54] + 4.832921842716616 x[55]
   + 1.305929431576661 x[56] + 2.079611703761387 x[57]
   + 3.896959055112403 x[58] + 0.9253606375712844 x[59]
   + 4.434016377883621 x[60] + 3.160686633458672 x[61]
   + 0.6609443969782773 x[62] + 3.947298297480273 x[63]
   + 1.127900329113896 x[64] + 2.690893043837872 x[65]
   + 1.667536568770189 x[66] + 1.505124997963132 x[67]
   + 1.685782215405703 x[68] + 0.593961655567546 x[69] + 73 u[0] + u[1]
   + 67 u[2] + 24 u[3] + 97 u[4] + 75 u[5] + 66 u[6] + 97 u[7] + 50 u[8]
   + 99 u[9] + 29 u[10] + 76 u[11] + 41 u[12] + 97 u[13] + 6 u[14]
   + 38 u[15] + 58 u[16] + 33 u[17] + 26 u[18] + 63 u[19] + 18 u[20]
   + 25 u[21] + 25 u[22] + 88 u[23] + 70 u[24] + 93 u[25] + 19 u[26]
   + 57 u[27] + 87 u[28] + 16 u[29] + 59 u[30] + 81 u[31] + 29 u[32]
   + 82 u[33] + u[34] + 46 u[35] + 45 u[36] + 62 u[37] + 93 u[38]
   + 56 u[39] + 28 u[40] + 39 u[41] + 71 u[42] + 7 u[43] + 100 u[44]
   + 12 u[45] + 67 u[46] + 35 u[47] + 56 u[48] + 9 u[49] + 28 u[50]
   + 41 u[51] + 90 u[52] + 25 u[53] + 98 u[54] + 89 u[55] + 86 u[56]
   + 16 u[57] + 85 u[58] + 95 u[59] + 98 u[60] + 12 u[61] + 57 u[62]
   + 28 u[63] + 53 u[64] + 89 u[65] + 2 u[66] + 52 u[67] + 65 u[68]
   + 43 u[69] <= 81260
 mccormick1[0]: - u[0] + r[0] <= 0
 mccormick1[1]: - u[1] + r[1] <= 0
 mccormick1[2]: - u[2] + r[2] <= 0
 mccormick1[3]: - u[3] + r[3] <= 0
 mccormick1[4]: - u[4] + r[4] <= 0
 mccormick1[5]: - u[5] + r[5] <= 0
 mccormick1[6]: - u[6] + r[6] <= 0
 mccormick1[7]: - u[7] + r[7] <= 0
 mccormick1[8]: - u[8] + r[8] <= 0
 mccormick1[9]: - u[9] + r[9] <= 0
 mccormick1[10]: - u[10] + r[10] <= 0
 mccormick1[11]: - u[11] + r[11] <= 0
 mccormick1[12]: - u[12] + r[12] <= 0
 mccormick1[13]: - u[13] + r[13] <= 0
 mccormick1[14]: - u[14] + r[14] <= 0
 mccormick1[15]: - u[15] + r[15] <= 0
 mccormick1[16]: - u[16] + r[16] <= 0
 mccormick1[17]: - u[17] + r[17] <= 0
 mccormick1[18]: - u[18] + r[18] <= 0
 mccormick1[19]: - u[19] + r[19] <= 0
 mccormick1[20]: - u[20] + r[20] <= 0
 mccormick1[21]: - u[21] + r[21] <= 0
 mccormick1[22]: - u[22] + r[22] <= 0
 mccormick1[23]: - u[23] + r[23] <= 0
 mccormick1[24]: - u[24] + r[24] <= 0
 mccormick1[25]: - u[25] + r[25] <= 0
 mccormick1[26]: - u[26] + r[26] <= 0
 mccormick1[27]: - u[27] + r[27] <= 0
 mccormick1[28]: - u[28] + r[28] <= 0
 mccormick1[29]: - u[29] + r[29] <= 0
 mccormick1[30]: - u[30] + r[30] <= 0
 mccormick1[31]: - u[31] + r[31] <= 0
 mccormick1[32]: - u[32] + r[32] <= 0
 mccormick1[33]: - u[33] + r[33] <= 0
 mccormick1[34]: - u[34] + r[34] <= 0
 mccormick1[35]: - u[35] + r[35] <= 0
 mccormick1[36]: - u[36] + r[36] <= 0
 mccormick1[37]: - u[37] + r[37] <= 0
 mccormick1[38]: - u[38] + r[38] <= 0
 mccormick1[39]: - u[39] + r[39] <= 0
 mccormick1[40]: - u[40] + r[40] <= 0
 mccormick1[41]: - u[41] + r[41] <= 0
 mccormick1[42]: - u[42] + r[42] <= 0
 mccormick1[43]: - u[43] + r[43] <= 0
 mccormick1[44]: - u[44] + r[44] <= 0
 mccormick1[45]: - u[45] + r[45] <= 0
 mccormick1[46]: - u[46] + r[46] <= 0
 mccormick1[47]: - u[47] + r[47] <= 0
 mccormick1[48]: - u[48] + r[48] <= 0
 mccormick1[49]: - u[49] + r[49] <= 0
 mccormick1[50]: - u[50] + r[50] <= 0
 mccormick1[51]: - u[51] + r[51] <= 0
 mccormick1[52]: - u[52] + r[52] <= 0
 mccormick1[53]: - u[53] + r[53] <= 0
 mccormick1[54]: - u[54] + r[54] <= 0
 mccormick1[55]: - u[55] + r[55] <= 0
 mccormick1[56]: - u[56] + r[56] <= 0
 mccormick1[57]: - u[57] + r[57] <= 0
 mccormick1[58]: - u[58] + r[58] <= 0
 mccormick1[59]: - u[59] + r[59] <= 0
 mccormick1[60]: - u[60] + r[60] <= 0
 mccormick1[61]: - u[61] + r[61] <= 0
 mccormick1[62]: - u[62] + r[62] <= 0
 mccormick1[63]: - u[63] + r[63] <= 0
 mccormick1[64]: - u[64] + r[64] <= 0
 mccormick1[65]: - u[65] + r[65] <= 0
 mccormick1[66]: - u[66] + r[66] <= 0
 mccormick1[67]: - u[67] + r[67] <= 0
 mccormick1[68]: - u[68] + r[68] <= 0
 mccormick1[69]: - u[69] + r[69] <= 0
 mccormick2[0]: - x[0] + r[0] <= 0
 mccormick2[1]: - x[1] + r[1] <= 0
 mccormick2[2]: - x[2] + r[2] <= 0
 mccormick2[3]: - x[3] + r[3] <= 0
 mccormick2[4]: - x[4] + r[4] <= 0
 mccormick2[5]: - x[5] + r[5] <= 0
 mccormick2[6]: - x[6] + r[6] <= 0
 mccormick2[7]: - x[7] + r[7] <= 0
 mccormick2[8]: - x[8] + r[8] <= 0
 mccormick2[9]: - x[9] + r[9] <= 0
 mccormick2[10]: - x[10] + r[10] <= 0
 mccormick2[11]: - x[11] + r[11] <= 0
 mccormick2[12]: - x[12] + r[12] <= 0
 mccormick2[13]: - x[13] + r[13] <= 0
 mccormick2[14]: - x[14] + r[14] <= 0
 mccormick2[15]: - x[15] + r[15] <= 0
 mccormick2[16]: - x[16] + r[16] <= 0
 mccormick2[17]: - x[17] + r[17] <= 0
 mccormick2[18]: - x[18] + r[18] <= 0
 mccormick2[19]: - x[19] + r[19] <= 0
 mccormick2[20]: - x[20] + r[20] <= 0
 mccormick2[21]: - x[21] + r[21] <= 0
 mccormick2[22]: - x[22] + r[22] <= 0
 mccormick2[23]: - x[23] + r[23] <= 0
 mccormick2[24]: - x[24] + r[24] <= 0
 mccormick2[25]: - x[25] + r[25] <= 0
 mccormick2[26]: - x[26] + r[26] <= 0
 mccormick2[27]: - x[27] + r[27] <= 0
 mccormick2[28]: - x[28] + r[28] <= 0
 mccormick2[29]: - x[29] + r[29] <= 0
 mccormick2[30]: - x[30] + r[30] <= 0
 mccormick2[31]: - x[31] + r[31] <= 0
 mccormick2[32]: - x[32] + r[32] <= 0
 mccormick2[33]: - x[33] + r[33] <= 0
 mccormick2[34]: - x[34] + r[34] <= 0
 mccormick2[35]: - x[35] + r[35] <= 0
 mccormick2[36]: - x[36] + r[36] <= 0
 mccormick2[37]: - x[37] + r[37] <= 0
 mccormick2[38]: - x[38] + r[38] <= 0
 mccormick2[39]: - x[39] + r[39] <= 0
 mccormick2[40]: - x[40] + r[40] <= 0
 mccormick2[41]: - x[41] + r[41] <= 0
 mccormick2[42]: - x[42] + r[42] <= 0
 mccormick2[43]: - x[43] + r[43] <= 0
 mccormick2[44]: - x[44] + r[44] <= 0
 mccormick2[45]: - x[45] + r[45] <= 0
 mccormick2[46]: - x[46] + r[46] <= 0
 mccormick2[47]: - x[47] + r[47] <= 0
 mccormick2[48]: - x[48] + r[48] <= 0
 mccormick2[49]: - x[49] + r[49] <= 0
 mccormick2[50]: - x[50] + r[50] <= 0
 mccormick2[51]: - x[51] + r[51] <= 0
 mccormick2[52]: - x[52] + r[52] <= 0
 mccormick2[53]: - x[53] + r[53] <= 0
 mccormick2[54]: - x[54] + r[54] <= 0
 mccormick2[55]: - x[55] + r[55] <= 0
 mccormick2[56]: - x[56] + r[56] <= 0
 mccormick2[57]: - x[57] + r[57] <= 0
 mccormick2[58]: - x[58] + r[58] <= 0
 mccormick2[59]: - x[59] + r[59] <= 0
 mccormick2[60]: - x[60] + r[60] <= 0
 mccormick2[61]: - x[61] + r[61] <= 0
 mccormick2[62]: - x[62] + r[62] <= 0
 mccormick2[63]: - x[63] + r[63] <= 0
 mccormick2[64]: - x[64] + r[64] <= 0
 mccormick2[65]: - x[65] + r[65] <= 0
 mccormick2[66]: - x[66] + r[66] <= 0
 mccormick2[67]: - x[67] + r[67] <= 0
 mccormick2[68]: - x[68] + r[68] <= 0
 mccormick2[69]: - x[69] + r[69] <= 0
 mccormick3[0]: x[0] + u[0] - r[0] <= 1
 mccormick3[1]: x[1] + u[1] - r[1] <= 1
 mccormick3[2]: x[2] + u[2] - r[2] <= 1
 mccormick3[3]: x[3] + u[3] - r[3] <= 1
 mccormick3[4]: x[4] + u[4] - r[4] <= 1
 mccormick3[5]: x[5] + u[5] - r[5] <= 1
 mccormick3[6]: x[6] + u[6] - r[6] <= 1
 mccormick3[7]: x[7] + u[7] - r[7] <= 1
 mccormick3[8]: x[8] + u[8] - r[8] <= 1
 mccormick3[9]: x[9] + u[9] - r[9] <= 1
 mccormick3[10]: x[10] + u[10] - r[10] <= 1
 mccormick3[11]: x[11] + u[11] - r[11] <= 1
 mccormick3[12]: x[12] + u[12] - r[12] <= 1
 mccormick3[13]: x[13] + u[13] - r[13] <= 1
 mccormick3[14]: x[14] + u[14] - r[14] <= 1
 mccormick3[15]: x[15] + u[15] - r[15] <= 1
 mccormick3[16]: x[16] + u[16] - r[16] <= 1
 mccormick3[17]: x[17] + u[17] - r[17] <= 1
 mccormick3[18]: x[18] + u[18] - r[18] <= 1
 mccormick3[19]: x[19] + u[19] - r[19] <= 1
 mccormick3[20]: x[20] + u[20] - r[20] <= 1
 mccormick3[21]: x[21] + u[21] - r[21] <= 1
 mccormick3[22]: x[22] + u[22] - r[22] <= 1
 mccormick3[23]: x[23] + u[23] - r[23] <= 1
 mccormick3[24]: x[24] + u[24] - r[24] <= 1
 mccormick3[25]: x[25] + u[25] - r[25] <= 1
 mccormick3[26]: x[26] + u[26] - r[26] <= 1
 mccormick3[27]: x[27] + u[27] - r[27] <= 1
 mccormick3[28]: x[28] + u[28] - r[28] <= 1
 mccormick3[29]: x[29] + u[29] - r[29] <= 1
 mccormick3[30]: x[30] + u[30] - r[30] <= 1
 mccormick3[31]: x[31] + u[31] - r[31] <= 1
 mccormick3[32]: x[32] + u[32] - r[32] <= 1
 mccormick3[33]: x[33] + u[33] - r[33] <= 1
 mccormick3[34]: x[34] + u[34] - r[34] <= 1
 mccormick3[35]: x[35] + u[35] - r[35] <= 1
 mccormick3[36]: x[36] + u[36] - r[36] <= 1
 mccormick3[37]: x[37] + u[37] - r[37] <= 1
 mccormick3[38]: x[38] + u[38] - r[38] <= 1
 mccormick3[39]: x[39] + u[39] - r[39] <= 1
 mccormick3[40]: x[40] + u[40] - r[40] <= 1
 mccormick3[41]: x[41] + u[41] - r[41] <= 1
 mccormick3[42]: x[42] + u[42] - r[42] <= 1
 mccormick3[43]: x[43] + u[43] - r[43] <= 1
 mccormick3[44]: x[44] + u[44] - r[44] <= 1
 mccormick3[45]: x[45] + u[45] - r[45] <= 1
 mccormick3[46]: x[46] + u[46] - r[46] <= 1
 mccormick3[47]: x[47] + u[47] - r[47] <= 1
 mccormick3[48]: x[48] + u[48] - r[48] <= 1
 mccormick3[49]: x[49] + u[49] - r[49] <= 1
 mccormick3[50]: x[50] + u[50] - r[50] <= 1
 mccormick3[51]: x[51] + u[51] - r[51] <= 1
 mccormick3[52]: x[52] + u[52] - r[52] <= 1
 mccormick3[53]: x[53] + u[53] - r[53] <= 1
 mccormick3[54]: x[54] + u[54] - r[54] <= 1
 mccormick3[55]: x[55] + u[55] - r[55] <= 1
 mccormick3[56]: x[56] + u[56] - r[56] <= 1
 mccormick3[57]: x[57] + u[57] - r[57] <= 1
 mccormick3[58]: x[58] + u[58] - r[58] <= 1
 mccormick3[59]: x[59] + u[59] - r[59] <= 1
 mccormick3[60]: x[60] + u[60] - r[60] <= 1
 mccormick3[61]: x[61] + u[61] - r[61] <= 1
 mccormick3[62]: x[62] + u[62] - r[62] <= 1
 mccormick3[63]: x[63] + u[63] - r[63] <= 1
 mccormick3[64]: x[64] + u[64] - r[64] <= 1
 mccormick3[65]: x[65] + u[65] - r[65] <= 1
 mccormick3[66]: x[66] + u[66] - r[66] <= 1
 mccormick3[67]: x[67] + u[67] - r[67] <= 1
 mccormick3[68]: x[68] + u[68] - r[68] <= 1
 mccormick3[69]: x[69] + u[69] - r[69] <= 1
Bounds
Binaries
 x[0] x[1] x[2] x[3] x[4] x[5] x[6] x[7] x[8] x[9] x[10] x[11] x[12] x[13]
 x[14] x[15] x[16] x[17] x[18] x[19] x[20] x[21] x[22] x[23] x[24] x[25]
 x[26] x[27] x[28] x[29] x[30] x[31] x[32] x[33] x[34] x[35] x[36] x[37]
 x[38] x[39] x[40] x[41] x[42] x[43] x[44] x[45] x[46] x[47] x[48] x[49]
 x[50] x[51] x[52] x[53] x[54] x[55] x[56] x[57] x[58] x[59] x[60] x[61]
 x[62] x[63] x[64] x[65] x[66] x[67] x[68] x[69] u[0] u[1] u[2] u[3] u[4]
 u[5] u[6] u[7] u[8] u[9] u[10] u[11] u[12] u[13] u[14] u[15] u[16] u[17]
 u[18] u[19] u[20] u[21] u[22] u[23] u[24] u[25] u[26] u[27] u[28] u[29]
 u[30] u[31] u[32] u[33] u[34] u[35] u[36] u[37] u[38] u[39] u[40] u[41]
 u[42] u[43] u[44] u[45] u[46] u[47] u[48] u[49] u[50] u[51] u[52] u[53]
 u[54] u[55] u[56] u[57] u[58] u[59] u[60] u[61] u[62] u[63] u[64] u[65]
 u[66] u[67] u[68] u[69] r[0] r[1] r[2] r[3] r[4] r[5] r[6] r[7] r[8] r[9]
 r[10] r[11] r[12] r[13] r[14] r[15] r[16] r[17] r[18] r[19] r[20] r[21]
 r[22] r[23] r[24] r[25] r[26] r[27] r[28] r[29] r[30] r[31] r[32] r[33]
 r[34] r[35] r[36] r[37] r[38] r[39] r[40] r[41] r[42] r[43] r[44] r[45]
 r[46] r[47] r[48] r[49] r[50] r[51] r[52] r[53] r[54] r[55] r[56] r[57]
 r[58] r[59] r[60] r[61] r[62] r[63] r[64] r[65] r[66] r[67] r[68] r[69]
End
