instances/knapsack/discrete/knapsack_70_6.kp
48853
70
348

43 4.3 76
48 4.8 88
30 3.0 62
39 3.9 10
92 9.2 47
5 0.5 63
17 1.7 43
7 0.7 77
33 3.3 4
10 1.0 20
83 8.3 25
71 7.1 77
16 1.6 69
100 10.0 72
64 6.4 41
36 3.6 22
77 7.7 100
24 2.4 32
77 7.7 52
26 2.6 39
5 0.5 51
95 9.5 45
96 9.6 30
46 4.6 22
36 3.6 15
16 1.6 8
22 2.2 6
95 9.5 25
81 8.1 28
71 7.1 86
25 2.5 23
35 3.5 58
95 9.5 82
81 8.1 41
92 9.2 9
85 8.5 95
60 6.0 23
20 2.0 77
28 2.8 84
86 8.6 53
11 1.1 78
25 2.5 23
82 8.2 27
69 6.9 45
87 8.7 28
22 2.2 85
89 8.9 94
21 2.1 6
43 4.3 22
96 9.6 43
54 5.4 5
40 4.0 76
49 4.9 61
32 3.2 71
36 3.6 10
71 7.1 56
53 5.3 4
58 5.8 6
92 9.2 26
18 1.8 53
60 6.0 10
50 5.0 84
67 6.7 39
26 2.6 91
19 1.9 20
32 3.2 23
60 6.0 55
74 7.4 51
88 8.8 50
65 6.5 51

81260
356

[0.12053617834099273 3.136059872372139 1.1774310346821975 1.391604527476424 1.4169373315072473 3.4320078027324827 3.4457556425386024 3.199794759474641 0.9835629592665329 2.6029693759352748 0.7145774397388847 0.15166004815173398 1.5763884059458166 2.2747795907013093 4.104980788420889 1.3062934252494376 4.4861298339984055 4.286866412951868 3.266600926167305 1.5142340596404962 2.0510730921155442 2.9612817498911603 1.1745731213747568 3.8752618635349005 1.9551646792910735 1.7918136783801277 3.5648378355342936 0.13606085995343883 3.074124133825857 0.21920090305408865 2.9951672163119865 1.052151018378025 3.7625986025926648 2.572251794907489 4.390057309745928 3.322880154667885 4.001079183248206 3.639976957142787 1.7594360459759737 2.1205403036781316 1.1339764883442667 1.6658390431143142 4.310011989791269 1.5803710707137315 4.271573927195023 0.5961389146692965 2.7165467819094093 3.5115755754157503 2.508734201385324 1.6050088289368782 1.8804459975218464 3.852699322914568 0.5282928295733301 1.8853313006751555 0.9735308062301223 4.832921842716616 1.3059294315766612 2.0796117037613873 3.896959055112403 0.9253606375712844 4.434016377883621 3.160686633458672 0.6609443969782773 3.9472982974802733 1.127900329113896 2.690893043837872 1.6675365687701889 1.5051249979631316 1.6857822154057034 0.593961655567546]

[73 1 67 24 97 75 66 97 50 99 29 76 41 97 6 38 58 33 26 63 18 25 25 88 70 93 19 57 87 16 59 81 29 82 1 46 45 62 93 56 28 39 71 7 100 12 67 35 56 9 28 41 90 25 98 89 86 16 85 95 98 12 57 28 53 89 2 52 65 43]
